1 1
2 1
3 1
4 2
5 1
6 1
7 2
8 2
9 2
10 1
11 1
12 2
13 1
14 2
15 2
16 2
17 1
18 2
19 2
20 2
21 1
22 2
23 1
24 2
25 1
26 2
27 2
28 1
29 1
30 1
31 2
32 2
33 2
34 2
35 2
36 1
37 2
38 2
39 1
40 1
41 2
42 1
43 1
44 2
45 1
46 1
47 1
48 2
49 2
50 2
51 1
52 2
53 2
54 2
55 2
56 1
57 1
58 1
59 2
60 2
61 1
62 1
63 1
64 1
65 1
66 2
67 2
68 2
69 1
70 1
71 2
72 1
73 1
74 1
75 2
76 2
77 2
78 1
79 2
80 2
81 2
82 2
83 1
84 1
85 1
86 1
87 1
88 1
89 1
90 1
91 1
92 2
93 1
94 2
95 2
96 1
97 1
98 2
99 1
100 1
101 1
102 2
103 2
104 1
105 2
106 1
107 2
108 1
109 1
110 2
111 2
112 1
113 2
114 1
115 1
116 1
117 1
118 2
119 2
120 2
121 1
122 1
123 1
124 2
125 1
126 1
127 1
128 2
129 1
130 2
131 1
132 1
133 1
134 2
135 1
136 1
137 1
138 2
139 1
140 1
141 2
142 2
143 2
144 2
145 1
146 1
147 1
148 2
149 2
150 1
151 1
152 1
153 1
154 1
155 2
156 2
157 1
158 1
159 2
160 1
161 1
162 2
163 1
164 1
165 2
166 2
167 1
168 1
169 2
170 1
171 1
172 2
173 1
174 2
175 2
176 2
177 1
178 2
179 1
180 1
181 1
182 2
183 1
184 2
185 2
186 1
187 2
188 2
189 1
190 1
191 2
192 1
193 1
194 1
195 1
196 1
197 1
198 2
199 2
200 2
201 1
202 1
203 1
204 1
205 2
206 2
207 1
208 2
209 1
210 2
211 2
212 2
213 1
214 1
215 2
216 2
217 1
218 1
219 1
220 1
221 1
222 1
223 1
224 1
225 1
226 2
227 2
228 1
229 1
230 2
231 1
232 2
233 2
234 2
235 2
236 1
237 1
238 1
239 1
240 1
241 2
242 1
243 2
244 2
245 2
246 1
247 2
248 2
249 1
250 1
251 2
252 1
253 1
254 1
255 1
256 2
257 2
258 2
259 2
260 1
261 1
262 2
263 1
264 2
265 1
266 1
267 1
268 2
269 1
270 1
271 1
272 2
273 1
274 2
275 2
276 1
277 1
278 2
279 1
280 1
281 1
282 1
283 1
284 1
285 1
286 1
287 1
288 2
289 1
290 1
291 1
292 2
293 2
294 1
295 2
296 1
297 1
298 2
299 1
300 1
301 2
302 1
303 2
304 2
305 1
306 1
307 2
308 2
309 1
310 1
311 2
312 2
313 2
314 1
315 2
316 1
317 2
318 2
319 1
320 2
321 1
322 1
323 1
324 1
325 2
326 2
327 1
328 1
329 1
330 1
331 1
332 2
333 1
334 1
335 1
336 1
337 2
338 1
339 1
340 2
341 2
342 2
343 2
344 1
345 2
346 1
347 1
348 1
349 2
350 1
351 1
352 1
353 1
354 2
355 1
356 1
357 2
358 1
359 1
360 1
361 2
362 1
363 1
364 2
365 1
366 1
367 1
368 2
369 1
370 1
371 1
372 2
373 2
374 1
375 2
376 1
377 2
378 1
379 2
380 2
381 2
382 2
383 1
384 1
385 2
386 2
387 2
388 1
389 1
390 2
391 1
392 1
393 2
394 2
395 2
396 1
397 2
398 2
399 1
400 1
401 1
402 1
403 1
404 1
405 1
406 1
407 2
408 1
409 2
410 2
411 2
412 2
413 1
414 2
415 2
416 1
417 1
418 1
419 1
420 2
421 2
422 1
423 1
424 2
425 1
426 1
427 1
428 1
429 2
430 1
431 1
432 1
433 2
434 2
435 1
436 1
437 1
438 1
439 2
440 1
441 1
442 2
443 2
444 2
445 2
446 2
447 2
448 2
449 2
450 1
451 1
452 1
453 2
454 1
455 2
456 1
457 1
458 2
459 1
460 2
461 2
462 2
463 2
464 1
465 2
466 1
467 1
468 1
469 2
470 1
471 2
472 2
473 2
474 1
475 1
476 1
477 2
478 2
479 1
480 2
481 1
482 2
483 2
484 2
485 1
486 2
487 1
488 1
489 2
490 1
491 2
492 2
493 2
494 2
495 2
496 1
497 1
498 1
499 1
500 2
501 2
502 1
503 1
504 2
505 1
506 1
507 2
508 1
509 2
510 2
511 2
512 2
513 1
514 2
515 2
516 2
517 1
518 1
519 2
520 1
521 1
522 1
523 2
524 1
525 1
526 1
527 1
528 1
529 1
530 1
531 1
532 1
533 2
534 2
535 2
536 1
537 2
538 1
539 2
540 1
541 1
542 1
543 2
544 2
545 1
546 2
547 1
548 1
549 2
550 1
551 2
552 2
553 2
554 1
555 1
556 2
557 1
558 2
559 1
560 1
561 2
562 2
563 2
564 2
565 1
566 1
567 1
568 1
569 1
570 1
571 1
572 2
573 1
574 1
575 2
576 2
577 2
578 2
579 1
580 2
581 1
582 2
583 2
584 2
585 2
586 1
587 1
588 2
589 1
590 1
591 2
592 2
593 2
594 2
595 1
596 2
597 1
598 2
599 2
600 1
601 1
602 1
603 1
604 2
605 1
606 1
607 1
608 2
609 1
610 1
611 2
612 2
613 1
614 1
615 2
616 1
617 2
618 1
619 2
620 2
621 1
622 1
623 1
624 2
625 1
626 1
627 1
628 2
629 2
630 2
631 2
632 1
633 1
634 2
635 1
636 1
637 1
638 1
639 1
640 2
641 1
642 1
643 2
644 1
645 1
646 1
647 1
648 1
649 2
650 2
651 1
652 2
653 2
654 2
655 2
656 1
657 2
658 2
659 1
660 1
661 1
662 2
663 1
664 2
665 1
666 1
667 1
668 2
669 2
670 1
671 2
672 2
673 2
674 1
675 1
676 2
677 1
678 1
679 2
680 2
681 2
682 1
683 1
684 2
685 2
686 2
687 2
688 1
689 1
690 2
691 1
692 2
693 1
694 1
695 2
696 2
697 2
698 1
699 2
700 1
701 2
702 2
703 1
704 2
705 1
706 2
707 1
708 1
709 2
710 2
711 1
712 2
713 1
714 2
715 1
716 2
717 1
718 1
719 1
720 2
721 1
722 2
723 2
724 2
725 2
726 1
727 2
728 1
729 1
730 2
731 2
732 2
733 2
734 1
735 2
736 1
737 1
738 1
739 1
740 1
741 2
742 1
743 1
744 1
745 2
746 1
747 1
748 2
749 2
750 1
751 1
752 2
753 2
754 1
755 2
756 2
757 1
758 1
759 2
760 1
761 2
762 1
763 2
764 2
765 1
766 1
767 1
768 1
769 1
770 2
771 2
772 2
773 1
774 2
775 2
776 1
777 2
778 1
779 1
780 2
781 1
782 2
783 2
784 1
785 2
786 1
787 2
788 1
789 1
790 2
791 2
792 1
793 2
794 2
795 2
796 1
797 1
798 1
799 2
800 1
801 2
802 2
803 1
804 1
805 1
806 2
807 2
808 1
809 1
810 1
811 2
812 2
813 1
814 2
815 2
816 2
817 2
818 2
819 2
820 1
821 2
822 1
823 2
824 2
825 2
826 2
827 2
828 2
829 1
830 1
831 1
832 2
833 1
834 1
835 2
836 1
837 2
838 2
839 1
840 1
841 2
842 1
843 2
844 1
845 2
846 2
847 2
848 2
849 1
850 1
851 1
852 2
853 1
854 2
855 2
856 2
857 2
858 2
859 1
860 2
861 1
862 2
863 1
864 2
865 1
866 1
867 1
868 1
869 1
870 1
871 1
872 1
873 2
874 2
875 1
876 2
877 1
878 1
879 1
880 1
881 2
882 2
883 1
884 1
885 1
886 1
887 2
888 1
889 2
890 2
891 2
892 2
893 1
894 2
895 1
896 1
897 1
898 1
899 1
900 2
901 2
902 2
903 2
904 1
905 2
906 1
907 2
908 2
909 2
910 2
911 1
912 1
913 1
914 2
915 2
916 2
917 1
918 2
919 1
920 1
921 2
922 2
923 2
924 1
925 2
926 2
927 1
928 1
929 2
930 2
931 2
932 2
933 1
934 2
935 1
936 1
937 2
938 2
939 2
940 1
941 1
942 1
943 2
944 1
945 1
946 1
947 1
948 2
949 1
950 2
951 2
952 1
953 2
954 1
955 2
956 1
957 2
958 1
959 1
960 2
961 1
962 2
963 2
964 2
965 2
966 2
967 1
968 1
969 2
970 2
971 1
972 1
973 1
974 2
975 1
976 1
977 1
978 2
979 2
980 2
981 1
982 1
983 2
984 1
985 1
986 1
987 2
988 1
989 2
990 1
991 2
992 2
993 2
994 1
995 1
996 1
997 1
998 2
999 2
1000 2
1001 2
1002 2
1003 1
1004 2
1005 1
1006 2
1007 1
1008 2
1009 1
1010 2
1011 1
1012 1
1013 1
1014 2
1015 2
1016 2
1017 2
1018 1
1019 1
1020 2
1021 2
1022 2
1023 2
1024 1
1025 2
1026 2
1027 2
1028 2
1029 2
1030 1
1031 2
1032 2
1033 1
1034 1
1035 2
1036 2
1037 2
1038 2
1039 1
1040 2
1041 2
1042 1
1043 1
1044 2
1045 2
1046 2
1047 2
1048 2
1049 2
1050 1
1051 2
1052 2
1053 1
1054 1
1055 1
1056 1
1057 1
1058 2
1059 2
1060 2
1061 1
1062 1
1063 1
1064 2
1065 1
1066 2
1067 1
1068 2
1069 1
1070 1
1071 2
1072 1
1073 1
1074 2
1075 1
1076 1
1077 1
1078 2
1079 1
1080 2
1081 2
1082 1
1083 1
1084 2
1085 2
1086 2
1087 1
1088 2
1089 1
1090 1
1091 1
1092 2
1093 1
1094 1
1095 1
1096 2
1097 2
1098 2
1099 2
1100 2
1101 1
1102 1
1103 1
1104 1
1105 2
1106 2
1107 1
1108 2
1109 2
1110 1
1111 1
1112 1
1113 2
1114 1
1115 1
1116 2
1117 2
1118 1
1119 1
1120 1
1121 2
1122 2
1123 2
1124 2
1125 2
1126 2
1127 2
1128 2
1129 2
1130 2
1131 1
1132 1
1133 2
1134 2
1135 1
1136 1
1137 2
1138 1
1139 1
1140 2
1141 1
1142 2
1143 2
1144 1
1145 1
1146 1
1147 1
1148 1
1149 1
1150 1
1151 2
1152 1
1153 2
1154 2
1155 2
1156 2
1157 2
1158 2
1159 1
1160 2
1161 1
1162 2
1163 2
1164 1
1165 1
1166 1
1167 1
1168 1
1169 2
1170 1
1171 1
1172 2
1173 2
1174 2
1175 2
1176 1
1177 2
1178 2
1179 2
1180 1
1181 1
1182 2
1183 2
1184 2
1185 2
1186 2
1187 1
1188 2
1189 1
1190 1
1191 1
1192 2
1193 1
1194 1
1195 2
1196 2
1197 2
1198 1
1199 1
1200 2
1201 2
1202 1
1203 1
1204 2
1205 2
1206 2
1207 1
1208 1
1209 1
1210 2
1211 1
1212 1
1213 1
1214 1
1215 2
1216 1
1217 2
1218 2
1219 2
1220 2
1221 2
1222 1
1223 2
1224 2
1225 2
1226 1
1227 1
1228 1
1229 2
1230 2
1231 1
1232 2
1233 1
1234 1
1235 2
1236 2
1237 2
1238 2
1239 1
1240 1
1241 2
1242 1
1243 2
1244 2
1245 2
1246 2
1247 1
1248 1
1249 1
1250 1
1251 1
1252 1
1253 2
1254 2
1255 1
1256 2
1257 2
1258 2
1259 2
1260 1
1261 1
1262 1
1263 2
1264 2
1265 1
1266 2
1267 1
1268 2
1269 1
1270 1
1271 2
1272 1
1273 1
1274 2
1275 2
1276 2
1277 2
1278 2
1279 1
1280 2
1281 1
1282 2
1283 2
1284 2
1285 1
1286 1
1287 1
1288 1
1289 2
1290 2
1291 1
1292 1
1293 2
1294 1
1295 2
1296 2
1297 1
1298 2
1299 1
1300 1
1301 2
1302 1
1303 1
1304 2
1305 1
1306 1
1307 2
1308 2
1309 2
1310 2
1311 1
1312 1
1313 1
1314 1
1315 1
1316 1
1317 1
1318 1
1319 2
1320 2
1321 2
1322 2
1323 1
1324 1
1325 1
1326 1
1327 2
1328 2
1329 2
1330 1
1331 1
1332 1
1333 2
1334 2
1335 1
1336 1
1337 2
1338 2
1339 2
1340 1
1341 2
1342 1
1343 1
1344 1
1345 2
1346 1
1347 2
1348 1
1349 1
1350 2
1351 2
1352 2
1353 1
1354 2
1355 1
1356 2
1357 2
1358 1
1359 2
1360 1
1361 2
1362 2
1363 2
1364 2
1365 2
1366 2
1367 1
1368 1
1369 1
1370 2
1371 2
1372 2
1373 2
1374 1
1375 1
1376 2
1377 2
1378 1
1379 2
1380 2
1381 1
1382 2
1383 2
1384 1
1385 2
1386 1
1387 1
1388 2
1389 2
1390 2
1391 2
1392 1
1393 2
1394 2
1395 1
1396 2
1397 2
1398 2
1399 2
1400 2
1401 2
1402 1
1403 1
1404 2
1405 1
1406 1
1407 2
1408 2
1409 1
1410 2
1411 1
1412 2
1413 1
1414 1
1415 1
1416 2
1417 2
1418 2
1419 1
1420 2
1421 2
1422 2
1423 2
1424 1
1425 1
1426 1
1427 1
1428 2
1429 2
1430 2
1431 1
1432 2
1433 1
1434 2
1435 2
1436 2
1437 1
1438 2
1439 1
1440 1
1441 1
1442 2
1443 1
1444 2
1445 1
1446 2
1447 2
1448 2
1449 2
1450 2
1451 2
1452 2
1453 1
1454 2
1455 2
1456 1
1457 1
1458 1
1459 1
1460 2
1461 2
1462 2
1463 2
1464 2
1465 1
1466 1
1467 2
1468 1
1469 1
1470 2
1471 2
1472 2
1473 1
1474 2
1475 2
1476 2
1477 1
1478 2
1479 2
1480 1
1481 1
1482 1
1483 1
1484 2
1485 1
1486 1
1487 2
1488 2
1489 1
1490 1
1491 2
1492 1
1493 1
1494 2
1495 2
1496 2
1497 1
1498 2
1499 1
1500 2
1501 2
1502 2
1503 1
1504 2
1505 1
1506 2
1507 1
1508 1
1509 2
1510 2
1511 2
1512 2
1513 1
1514 2
1515 2
1516 2
1517 2
1518 1
1519 2
1520 2
1521 2
1522 2
1523 1
1524 2
1525 1
1526 1
1527 2
1528 2
1529 1
1530 2
1531 1
1532 1
1533 1
1534 2
1535 2
1536 1
1537 2
1538 2
1539 2
1540 2
1541 2
1542 1
1543 2
1544 2
1545 2
1546 2
1547 2
1548 2
1549 2
1550 2
1551 2
1552 1
1553 1
1554 1
1555 1
1556 1
1557 2
1558 2
1559 1
1560 1
1561 1
1562 1
1563 2
1564 2
1565 1
1566 1
1567 2
1568 1
1569 2
1570 1
1571 2
1572 1
1573 1
1574 1
1575 1
1576 1
1577 1
1578 1
1579 2
1580 2
1581 2
1582 2
1583 2
1584 1
1585 2
1586 2
1587 1
1588 2
1589 1
1590 2
1591 2
1592 1
1593 2
1594 1
1595 1
1596 2
1597 1
1598 2
1599 1
1600 1
1601 2
1602 1
1603 2
1604 2
1605 2
1606 1
1607 1
1608 1
1609 1
1610 2
1611 2
1612 1
1613 2
1614 1
1615 1
1616 1
1617 2
1618 2
1619 2
1620 1
1621 2
1622 1
1623 1
1624 2
1625 1
1626 2
1627 1
1628 1
1629 1
1630 1
1631 2
1632 2
1633 2
1634 1
1635 2
1636 2
1637 2
1638 1
1639 1
1640 1
1641 2
1642 2
1643 2
1644 1
1645 2
1646 2
1647 2
1648 1
1649 1
1650 2
1651 2
1652 1
1653 2
1654 1
1655 1
1656 2
1657 1
1658 2
1659 1
1660 2
1661 1
1662 1
1663 2
1664 2
1665 1
1666 2
1667 1
1668 1
1669 1
1670 1
1671 2
1672 1
1673 2
1674 2
1675 2
1676 1
1677 1
1678 2
1679 2
1680 2
1681 2
1682 2
1683 1
1684 1
1685 1
1686 2
1687 1
1688 1
1689 2
1690 1
1691 1
1692 1
1693 1
1694 2
1695 1
1696 2
1697 1
1698 1
1699 2
1700 2
1701 1
1702 1
1703 2
1704 2
1705 2
1706 2
1707 1
1708 2
1709 2
1710 2
1711 1
1712 2
1713 2
1714 1
1715 1
1716 2
1717 2
1718 1
1719 1
1720 2
1721 1
1722 2
1723 2
1724 2
1725 2
1726 2
1727 2
1728 1
1729 2
1730 2
1731 2
1732 1
1733 2
1734 1
1735 1
1736 1
1737 2
1738 2
1739 2
1740 2
1741 1
1742 2
1743 1
1744 2
1745 2
1746 1
1747 1
1748 1
1749 1
1750 2
1751 2
1752 2
1753 2
1754 1
1755 2
1756 1
1757 1
1758 2
1759 1
1760 1
1761 2
1762 1
1763 1
1764 1
1765 1
1766 2
1767 1
1768 2
1769 1
1770 2
1771 2
1772 1
1773 1
1774 2
1775 2
1776 2
1777 2
1778 2
1779 1
1780 1
1781 2
1782 2
1783 1
1784 2
1785 1
1786 2
1787 2
1788 2
1789 1
1790 2
1791 1
1792 2
1793 1
1794 1
1795 2
1796 1
1797 2
1798 1
1799 1
1800 1
1801 1
1802 2
1803 1
1804 1
1805 2
1806 1
1807 1
1808 1
1809 1
1810 2
1811 2
1812 2
1813 2
1814 2
1815 1
1816 1
1817 2
1818 2
1819 1
1820 2
1821 2
1822 2
1823 2
1824 2
1825 1
1826 2
1827 1
1828 2
1829 1
1830 1
1831 2
1832 2
1833 1
1834 2
1835 2
1836 1
1837 1
1838 2
1839 1
1840 1
1841 2
1842 2
1843 2
1844 2
1845 2
1846 1
1847 2
1848 1
1849 1
1850 2
1851 2
1852 2
1853 1
1854 1
1855 2
1856 1
1857 2
1858 1
1859 1
1860 1
1861 1
1862 1
1863 2
1864 2
1865 2
1866 2
1867 1
1868 1
1869 2
1870 1
1871 2
1872 1
1873 2
1874 2
1875 1
1876 2
1877 1
1878 2
1879 1
1880 2
1881 1
1882 2
1883 2
1884 1
1885 1
1886 1
1887 1
1888 2
1889 1
1890 2
1891 1
1892 1
1893 2
1894 1
1895 1
1896 2
1897 2
1898 1
1899 2
1900 2
1901 1
1902 2
1903 2
1904 1
1905 2
1906 2
1907 2
1908 2
1909 1
1910 2
1911 1
1912 2
1913 2
1914 2
1915 1
1916 2
1917 1
1918 2
1919 1
1920 2
1921 1
1922 1
1923 1
1924 2
1925 2
1926 2
1927 2
1928 2
1929 2
1930 1
1931 1
1932 1
1933 1
1934 2
1935 1
1936 1
1937 1
1938 1
1939 2
1940 2
1941 2
1942 1
1943 1
1944 2
1945 1
1946 2
1947 1
1948 2
1949 2
1950 2
1951 1
1952 2
1953 1
1954 1
1955 1
1956 2
1957 2
1958 1
1959 2
1960 2
1961 1
1962 2
1963 2
1964 1
1965 1
1966 2
1967 1
1968 1
1969 1
1970 1
1971 1
1972 2
1973 1
1974 1
1975 1
1976 1
1977 1
1978 1
1979 1
1980 2
1981 1
1982 1
1983 2
1984 2
1985 2
1986 2
1987 2
1988 2
1989 2
1990 2
1991 2
1992 1
1993 2
1994 2
1995 1
1996 1
1997 2
1998 1
1999 2
2000 2
